p cnf 97 119
-1 55 80 81 82 88 0 
-2 88 0 
-3 87 88 0 
-4 -5 89 0 
-6 89 0 
-4 -7 8 54 89 0 
-8 7 54 90 0 
-9 91 -14 -32 -33 -75 0 
-4 -10 -11 27 40 44 63 64 72 88 0 
-12 53 67 88 0 
-13 -4 88 0 
-14 32 33 75 -15 88 0 
-16 37 43 70 -17 89 0 
-16 37 43 70 -17 88 0 
-18 41 88 0 
-19 39 56 74 79 88 0 
-20 88 0 
-16 37 43 70 92 0 
-21 89 0 
-21 92 0 
-22 92 0 
-16 37 43 70 89 0 
-18 41 -23 24 28 50 60 61 88 0 
-16 37 43 70 -24 23 28 50 60 61 88 0 
-25 -26 -18 41 -15 88 0 
-27 11 40 44 63 64 72 -20 88 0 
-28 23 24 50 60 61 88 0 
-24 23 28 50 60 61 88 0 
-16 37 43 70 -29 89 0 
-16 37 43 70 -30 88 0 
-16 37 43 70 -20 88 0 
-31 89 0 
-32 14 33 75 88 0 
-33 14 32 75 89 0 
-34 88 0 
-32 14 33 75 89 0 
-35 92 0 
-36 88 0 
-37 16 43 70 88 0 
-38 52 88 0 
-31 -20 88 0 
-39 19 56 74 79 88 0 
-40 11 27 44 63 64 72 -20 88 0 
-41 18 -24 23 28 50 60 61 88 0 
-41 18 -24 23 28 50 60 61 89 0 
-42 89 0 
-36 89 0 
-33 14 32 75 93 0 
-25 -41 18 -35 88 0 
-25 -33 14 32 75 -4 88 0 
-33 14 32 75 -43 16 37 70 94 0 
-35 89 0 
-44 11 27 40 63 64 72 -26 -33 14 32 75 89 0 
-35 95 0 
-25 -45 -46 89 0 
-47 88 0 
-33 14 32 75 94 0 
-45 -7 8 54 88 0 
-48 -33 14 32 75 89 0 
-41 18 -35 88 0 
-48 -33 14 32 75 88 0 
-33 14 32 75 -49 89 0 
-50 23 24 28 60 61 88 0 
-51 88 0 
-31 -23 24 28 50 60 61 89 0 
-52 38 -53 12 67 88 0 
-54 7 8 89 0 
-38 52 89 0 
-18 41 89 0 
-40 11 27 44 63 64 72 -55 1 80 81 82 88 0 
-40 11 27 44 63 64 72 89 0 
-20 89 0 
-26 -38 52 89 0 
-26 -42 88 0 
-36 -16 37 43 70 88 0 
-16 37 43 70 -30 89 0 
-16 37 43 70 -20 89 0 
-56 19 39 74 79 88 0 
-57 88 0 
-58 88 0 
-36 -59 89 0 
-18 41 -60 23 24 28 50 61 89 0 
-16 37 43 70 88 0 
-6 96 0 
-42 -61 23 24 28 50 60 89 0 
-18 41 -60 23 24 28 50 61 88 0 
-62 88 0 
-6 88 0 
-42 88 0 
-13 88 0 
-40 11 27 44 63 64 72 88 0 
-63 11 27 40 44 64 72 88 0 
-22 88 0 
-64 11 27 40 44 63 72 -15 88 0 
-51 89 0 
-65 73 76 77 -66 88 0 
-25 -67 12 53 89 0 
-38 52 -18 41 89 0 
-68 89 0 
-69 -70 16 37 43 88 0 
-31 -71 88 0 
-72 11 27 40 44 63 64 -73 65 76 77 -4 88 0 
-74 19 39 56 79 89 0 
-75 14 32 33 88 0 
-76 65 73 77 88 0 
-77 65 73 76 88 0 
-13 -78 97 0 
-79 19 39 56 74 88 0 
-80 1 55 81 82 89 0 
-81 1 55 80 82 89 0 
-82 1 55 80 81 89 0 
-54 7 8 88 0 
-16 37 43 70 -83 88 0 
-21 88 0 
-84 88 0 
-85 88 0 
-86 88 0 
-52 38 -53 12 67 -87 3 88 0 
-25 -41 18 -40 11 27 44 63 64 72 88 0 
